peakDumbCharging = 22200; 
Machine = anon_enum(16); 
machineSpeed = [3700,3700,3700,3700,3700,3700,3700,3700,3700,3700,3700,3700,3700,3700,3700,3700]; 
machineLoad = [3700,3700,3700,3700,3700,3700,3700,3700,3700,3700,3700,3700,3700,3700,3700,3700]; 
Car = anon_enum(22); 
demandCar = [29160,15000,8600,7320,4840,680,7960,3600,3400,13040,15720,21880,6520,11960,10320,10400,5520,7040,6360,1760,14640,22240]; 
arrivalCar = [73,73,69,67,67,67,64,62,62,61,60,60,59,58,53,45,45,41,38,35,34,28]; 
departureCar = [84,78,73,70,70,68,67,64,64,66,66,68,63,62,57,49,49,44,42,37,39,51]; 
